NAME : TSP Generated Input11
COMMENT : 11-city problem (Randomly generated)
TYPE : TSP
DIMENSION : 11
EDGE_WEIGHT_TYPE : EUC_2D
NODE_COORD_SECTION
1 55.98 75.21
2 17.52 41.22
3 90.63 72.60
4 52.70 49.13
5 61.30 91.79
6 89.07 88.63
7 45.17 51.61
8 20.53 17.39
9 90.27 40.70
10 53.27 23.43
11 49.95 88.51
EOF
